32	4
19	15	12	13
0	0	0	0	0	2	2	20
10	11	15	12	13	1	3
7	12	15	12	7	1	4
5	16	2	7	13	1	5
3	5	11	11	9	1	6
5	19	9	9	12	1	7
5	11	15	4	13	1	8
4	15	15	2	9	1	9
9	1	1	12	1	1	10
6	13	9	5	13	1	11
6	19	15	10	4	1	12
8	6	14	3	7	1	13
4	9	15	12	13	2	14	31
6	19	15	12	13	1	15
3	8	3	12	9	2	16	30
2	19	15	10	3	1	17
9	19	10	2	10	2	18	29
4	19	11	12	10	2	19	28
1	16	13	12	9	2	21	27
2	10	15	10	13	2	22	27
9	7	15	4	7	1	22
9	19	10	12	9	1	23
1	19	2	12	6	1	24
2	19	6	11	13	1	25
5	19	15	12	11	1	26
4	10	15	12	13	1	32
3	17	7	4	13	1	32
4	19	15	11	13	1	32
7	15	6	9	8	1	32
8	19	14	2	6	1	32
7	18	15	12	13	1	32
0	0	0	0	0	0
